c  s420
c  35 inputs
c  18 outputs
c  74 inverters
c  122 gates ( 28 ANDs + 46 NANDs + 9 ORs + 39 NORs )
cc labels (1 C_9) (2 C_1) (3 C_2) (4 C_14) (5 C_10) (6 C_5) (7 C_12) (8 C_3) (9 C_0) (10 C_13) (11 C_16) (12 C_15) (13 C_11) (14 C_4) (15 C_8) (16 C_6) (17 C_7) (18 Y_14) (19 Y_15) (20 Y_16) (21 Y_13) (22 Y_10) (23 Y_11) (24 Y_12) (25 Y_9) (26 Y_6) (27 Y_7) (28 Y_8) (29 Y_5) (30 Y_2) (31 Y_3) (32 Y_4) (33 X) (34 CLEAR) (35 Y_1) (36 W) (37 II591_2) (38 II591_1) (39 II461) (40 II439_2) (41 II439_1) (42 II309) (43 II287_2) (44 II287_1) (45 II157) (46 II135_2) (47 II135_1) (48 II5) (49 P_9) (50 II1001_1) (51 II618) (52 P_1) (53 II1032_2) (54 II614) (55 P_2) (56 II1032_1) (57 II992) (58 II991) (59 II814) (60 P_14) (61 II961) (62 II742) (63 P_10) (64 II945) (65 P_5) (66 II1028_1) (67 II750) (68 II749) (69 P_12) (70 II1008_2) (71 II620) (72 P_3) (73 II1008_1) (74 II972) (75 II901) (76 II884) (77 II1016_1) (78 II975) (79 II984) (80 II809) (81 P_13) (82 II957) (83 II812) (84 P_16) (85 II1012_2) (86 II810) (87 II743) (88 II776) (89 II611_3) (90 II808) (91 II849) (92 II846) (93 II818) (94 II811) (95 P_15) (96 II1012_1) (97 II974) (98 II740) (99 II611_2) (100 II788) (101 II789) (102 II741) (103 II784) (104 II781) (105 II748) (106 P_11) (107 II949) (108 II622) (109 II621) (110 P_4) (111 II1023_2) (112 II675) (113 II708) (114 II682) (115 II681) (116 P_8) (117 II1023_1) (118 II980) (119 II674) (120 P_6) (121 II1019_2) (122 II672) (123 II613) (124 II654) (125 II651) (126 II615) (127 II645) (128 II611_1) (129 II720) (130 II721) (131 II673) (132 II716) (133 II713) (134 II680) (135 P_7) (136 II1019_1) (137 II978) (138 II981) (139 II982) (140 II989) (141 II990) (142 II997) (143 II902) (144 Z) (145 II498) (146 II587_2) (147 II587_1) (148 II503) (149 II460) (150 II548) (151 II506) (152 II552) (153 II583_2) (154 II556) (155 II499) (156 II565) (157 II497) (158 II583_1) (159 II502) (160 II459) (161 II1_3) (162 II496) (163 II569) (164 II500) (165 II560) (166 II462) (167 II346) (168 II435_2) (169 II435_1) (170 II351) (171 II308) (172 II396) (173 II354) (174 II400) (175 II431_2) (176 II404) (177 II347) (178 II413) (179 II345) (180 II431_1) (181 II350) (182 II307) (183 II1_2) (184 II344) (185 II417) (186 II348) (187 II408) (188 II310) (189 II194) (190 II283_2) (191 II283_1) (192 II199) (193 II156) (194 II244) (195 II202) (196 II248) (197 II279_2) (198 II252) (199 II195) (200 II261) (201 II193) (202 II279_1) (203 II198) (204 II155) (205 II1_1) (206 II192) (207 II265) (208 II196) (209 II256) (210 II158) (211 II42) (212 II131_2) (213 II131_1) (214 II47) (215 II4) (216 II92) (217 II50) (218 II96) (219 II127_2) (220 II100) (221 II43) (222 II109) (223 II41) (224 II127_1) (225 II46) (226 II3) (227 II40) (228 II113) (229 II44) (230 II104) (231 II6)
cc inputs 1 2 3 4 5 6 7 8 9 10 11 12 13 14 15 16 17 18 19 20 21 22 23 24 25 26 27 28 29 30 31 32 33 34 35 
cc outputs 231 226 215 210 204 193 188 182 171 166 160 149 144 48 45 42 39 36 
p cnf 231 532
230 231 0
-230 -231 0
-230 -229 -228 0
230 229 0
230 228 0
35 229 0
-35 -229 0
228 34 227 0
-228 -34 0
-228 -227 0
33 227 0
-33 -227 0
225 226 0
-225 -226 0
225 224 219 0
-225 -224 0
-225 -219 0
224 -223 -31 -222 0
-224 223 0
-224 31 0
-224 222 0
32 223 0
-32 -223 0
222 221 220 0
-222 -221 0
-222 -220 0
30 221 0
-30 -221 0
-220 -35 -228 0
220 35 0
220 228 0
219 -218 -228 -32 0
-219 218 0
-219 228 0
-219 32 0
-218 -31 -217 0
218 31 0
218 217 0
216 217 0
-216 -217 0
-216 -30 -35 0
216 30 0
216 35 0
214 215 0
-214 -215 0
214 213 212 0
-214 -213 0
-214 -212 0
213 -228 -216 -31 0
-213 228 0
-213 216 0
-213 31 0
212 -211 -222 0
-212 211 0
-212 222 0
31 211 0
-31 -211 0
209 210 0
-209 -210 0
-209 -208 -207 0
209 208 0
209 207 0
29 208 0
-29 -208 0
207 34 206 0
-207 -34 0
-207 -206 0
205 206 0
-205 -206 0
205 223 218 0
-205 -223 0
-205 -218 0
203 204 0
-203 -204 0
203 202 197 0
-203 -202 0
-203 -197 0
202 -201 -27 -200 0
-202 201 0
-202 27 0
-202 200 0
28 201 0
-28 -201 0
200 199 198 0
-200 -199 0
-200 -198 0
26 199 0
-26 -199 0
-198 -29 -207 0
198 29 0
198 207 0
197 -196 -207 -28 0
-197 196 0
-197 207 0
-197 28 0
-196 -27 -195 0
196 27 0
196 195 0
194 195 0
-194 -195 0
-194 -26 -29 0
194 26 0
194 29 0
192 193 0
-192 -193 0
192 191 190 0
-192 -191 0
-192 -190 0
191 -207 -194 -27 0
-191 207 0
-191 194 0
-191 27 0
190 -189 -200 0
-190 189 0
-190 200 0
27 189 0
-27 -189 0
187 188 0
-187 -188 0
-187 -186 -185 0
187 186 0
187 185 0
25 186 0
-25 -186 0
185 34 184 0
-185 -34 0
-185 -184 0
183 184 0
-183 -184 0
183 201 196 0
-183 -201 0
-183 -196 0
181 182 0
-181 -182 0
181 180 175 0
-181 -180 0
-181 -175 0
180 -179 -23 -178 0
-180 179 0
-180 23 0
-180 178 0
24 179 0
-24 -179 0
178 177 176 0
-178 -177 0
-178 -176 0
22 177 0
-22 -177 0
-176 -25 -185 0
176 25 0
176 185 0
175 -174 -185 -24 0
-175 174 0
-175 185 0
-175 24 0
-174 -23 -173 0
174 23 0
174 173 0
172 173 0
-172 -173 0
-172 -22 -25 0
172 22 0
172 25 0
170 171 0
-170 -171 0
170 169 168 0
-170 -169 0
-170 -168 0
169 -185 -172 -23 0
-169 185 0
-169 172 0
-169 23 0
168 -167 -178 0
-168 167 0
-168 178 0
23 167 0
-23 -167 0
165 166 0
-165 -166 0
-165 -164 -163 0
165 164 0
165 163 0
21 164 0
-21 -164 0
163 34 162 0
-163 -34 0
-163 -162 0
161 162 0
-161 -162 0
161 179 174 0
-161 -179 0
-161 -174 0
159 160 0
-159 -160 0
159 158 153 0
-159 -158 0
-159 -153 0
158 -157 -19 -156 0
-158 157 0
-158 19 0
-158 156 0
20 157 0
-20 -157 0
156 155 154 0
-156 -155 0
-156 -154 0
18 155 0
-18 -155 0
-154 -21 -163 0
154 21 0
154 163 0
153 -152 -163 -20 0
-153 152 0
-153 163 0
-153 20 0
-152 -19 -151 0
152 19 0
152 151 0
150 151 0
-150 -151 0
-150 -18 -21 0
150 18 0
150 21 0
148 149 0
-148 -149 0
148 147 146 0
-148 -147 0
-148 -146 0
147 -163 -150 -19 0
-147 163 0
-147 150 0
-147 19 0
146 -145 -156 0
-146 145 0
-146 156 0
19 145 0
-19 -145 0
143 144 0
-143 -144 0
143 142 58 50 0
-143 -142 0
-143 -58 0
-143 -50 0
-142 -141 -79 -64 -61 0
142 141 0
142 79 0
142 64 0
142 61 0
140 141 0
-140 -141 0
-140 -139 -107 -97 -82 0
140 139 0
140 107 0
140 97 0
140 82 0
138 139 0
-138 -139 0
-138 -137 -118 0
138 137 0
138 118 0
137 136 121 0
-137 -136 0
-137 -121 0
136 -135 -17 0
-136 135 0
-136 17 0
134 135 0
-134 -135 0
-134 -27 -133 0
134 27 0
134 133 0
133 26 132 0
-133 -26 0
-133 -132 0
-132 -131 -130 0
132 131 0
132 130 0
29 131 0
-29 -131 0
129 130 0
-129 -130 0
-129 -128 -122 0
129 128 0
129 122 0
127 128 0
-127 -128 0
-127 -126 -125 0
127 126 0
127 125 0
31 126 0
-31 -126 0
125 30 124 0
-125 -30 0
-125 -124 0
-124 -33 -123 0
124 33 0
124 123 0
35 123 0
-35 -123 0
32 122 0
-32 -122 0
121 -120 -16 0
-121 120 0
-121 16 0
120 119 132 0
-120 -119 0
-120 -132 0
26 119 0
-26 -119 0
118 117 111 0
-118 -117 0
-118 -111 0
117 -116 -15 0
-117 116 0
-117 15 0
115 116 0
-115 -116 0
-115 -28 -114 0
115 28 0
115 114 0
113 114 0
-113 -114 0
-113 -112 -133 0
113 112 0
113 133 0
27 112 0
-27 -112 0
111 -110 -14 0
-111 110 0
-111 14 0
109 110 0
-109 -110 0
-109 -32 -108 0
109 32 0
109 108 0
127 108 0
-127 -108 0
-107 -106 -13 0
107 106 0
107 13 0
105 106 0
-105 -106 0
-105 -23 -104 0
105 23 0
105 104 0
104 22 103 0
-104 -22 0
-104 -103 0
-103 -102 -101 0
103 102 0
103 101 0
25 102 0
-25 -102 0
100 101 0
-100 -101 0
-100 -99 -98 0
100 99 0
100 98 0
113 99 0
-113 -99 0
28 98 0
-28 -98 0
97 96 85 0
-97 -96 0
-97 -85 0
96 -95 -12 0
-96 95 0
-96 12 0
95 94 93 0
-95 -94 0
-95 -93 0
19 94 0
-19 -94 0
-93 -92 -86 0
93 92 0
93 86 0
92 91 21 0
-92 -91 0
-92 -21 0
-91 -90 -89 0
91 90 0
91 89 0
24 90 0
-24 -90 0
88 89 0
-88 -89 0
-88 -87 -104 0
88 87 0
88 104 0
23 87 0
-23 -87 0
18 86 0
-18 -86 0
85 -84 -11 0
-85 84 0
-85 11 0
84 19 93 83 0
-84 -19 0
-84 -93 0
-84 -83 0
20 83 0
-20 -83 0
-82 -81 -10 0
82 81 0
82 10 0
81 80 91 0
-81 -80 0
-81 -91 0
21 80 0
-21 -80 0
79 78 66 0
-79 -78 0
-79 -66 0
-78 -77 -74 0
78 77 0
78 74 0
-77 76 75 0
77 -76 0
77 -75 0
33 76 0
-33 -76 0
9 75 0
-9 -75 0
74 73 70 0
-74 -73 0
-74 -70 0
73 -72 -8 0
-73 72 0
-73 8 0
71 72 0
-71 -72 0
-71 -31 -125 0
71 31 0
71 125 0
70 -69 -7 0
-70 69 0
-70 7 0
68 69 0
-68 -69 0
-68 -24 -67 0
68 24 0
68 67 0
88 67 0
-88 -67 0
66 -65 -6 0
-66 65 0
-66 6 0
65 131 129 0
-65 -131 0
-65 -129 0
-64 -63 -5 0
64 63 0
64 5 0
63 62 103 0
-63 -62 0
-63 -103 0
22 62 0
-22 -62 0
-61 -60 -4 0
61 60 0
61 4 0
59 60 0
-59 -60 0
-59 -18 -92 0
59 18 0
59 92 0
57 58 0
-57 -58 0
57 56 53 0
-57 -56 0
-57 -53 0
56 -55 -3 0
-56 55 0
-56 3 0
55 54 124 0
-55 -54 0
-55 -124 0
30 54 0
-30 -54 0
53 -52 -2 0
-53 52 0
-53 2 0
51 52 0
-51 -52 0
-51 -33 -35 0
51 33 0
51 35 0
50 -49 -1 0
-50 49 0
-50 1 0
49 102 100 0
-49 -102 0
-49 -100 0
-48 -47 -46 0
48 47 0
48 46 0
-47 221 230 0
47 -221 0
47 -230 0
-46 30 220 0
46 -30 0
46 -220 0
-45 -44 -43 0
45 44 0
45 43 0
-44 199 209 0
44 -199 0
44 -209 0
-43 26 198 0
43 -26 0
43 -198 0
-42 -41 -40 0
42 41 0
42 40 0
-41 177 187 0
41 -177 0
41 -187 0
-40 22 176 0
40 -22 0
40 -176 0
-39 -38 -37 0
39 38 0
39 37 0
-38 155 165 0
38 -155 0
38 -165 0
-37 18 154 0
37 -18 0
37 -154 0
36 157 152 0
-36 -157 0
-36 -152 0
%
0